webassembly/ejemplos_dzn/folder16_json_56.dzn
TERM = { '.', 's(5)', 's(2)', 's(4)', 'local_0', 'local_1', 's(6)', 's(1)', 's(0)', 's(7)', 's(3)', 'in_0'};
null = '.';
s = 16;
n = 9;
ndeps = 9;
max_registers_sz = 4;
NR = 1;
registers = [|'local_0', 's(0)'|];
dependencies = [|'i32.load_0', 'i32.store_7', |'i32.store_7', 'i32.load_9', |'call[function_index(0)]_10', 'i32.load16_s_11', |'i32.store_13', 'call[function_index(1)]_14', |'call[function_index(1)]_14', 'i32.load8_s_15', |'i32.load16_u_4', 'i32.store_7', |'i32.load8_u_6', 'i32.store_7', |'i32.load_9', 'call[function_index(0)]_10', |'i32.load16_s_11', 'i32.store_13'|];
GET_ENUM = { GET1, GET2, GET3, GET4, GET5};
SET_ENUM = { SET1, SET2, SET3, SET4, SET5};
TEE_ENUM = { TEE1, TEE2, TEE3, TEE4, TEE5};
N = 12;
OP = { 'call[function_index(0)]_10', 'call[function_index(1)]_14', 'i32.load_0', 'i32.load16_u_4', 'i32.load8_u_6', 'i32.store_7', 'i32.load_9', 'i32.load16_s_11', 'i32.const_0', 'i32.store_13', 'i32.load8_s_15', 'local.get_0' };
in_ops = [1, 0, 1, 1, 1, 2, 1, 1, 0, 2, 1, 0 ];
out_ops = [1, 0, 1, 1, 1, 0, 1, 1, 1, 0, 1, 1 ];
in1 = ['s(3)', '.', 'in_0', 'local_1', 's(0)', 's(2)', 's(0)', 's(4)', '.', 's(7)', 'local_1', '.' ];
in2 = ['.', '.', '.', '.', '.', 's(1)', '.', '.', '.', 's(5)', '.', '.' ];
in3 = ['.', '.', '.', '.', '.', '.', '.', '.', '.', '.', '.', '.' ];
out1 = ['s(4)', '.', 's(0)', 's(1)', 's(2)', '.', 's(3)', 's(5)', 's(7)', '.', 's(6)', 'local_1' ];
out2 = ['.', '.', '.', '.', '.', '.', '.', '.', '.', '.', '.', '.' ];
out3 = ['.', '.', '.', '.', '.', '.', '.', '.', '.', '.', '.', '.' ];
comm = [false, false, false, false, false, false, false, false, false, false, false, false ];
gas = [1, 1, 1, 1, 1, 1, 1, 1, 1, 1, 1, 1 ];
sz = [1, 1, 1, 1, 1, 1, 1, 1, 1, 1, 1, 1 ];
stor = [true, true, false, false, false, true, false, false, false, true, false, false ];
lb = [ 1, 1, 1, 1, 1, 1, 1, 1, 1, 1, 1, 1 ];
ub = [ 16, 16, 16, 16, 16, 16, 16, 16, 16, 16, 16, 16 ];
startstack = [ 'in_0', null, null, null, null, null, null, null, null ];
endstack = [ 's(6)', 's(0)', null, null, null, null, null, null, null ];
